NAME : morphed22-2-31
COMMENT : Generated using the function morphInstances from the R-package netgen (Bossek,2015) - Number of clusters: 2 Alpha: 0.5
TYPE : TSP
DIMENSION : 22
EDGE_WEIGHT_TYPE : EUC_2D
NODE_COORD_SECTION
1 38.9095533127 25.7937583455
2 86.5054312941 68.6637168162
3 56.8893667799 75.2882227967
4 30.9755063211 3.4864872459
5 67.5682925911 10.3912276919
6 51.8829532168 86.2607722829
7 57.5234117149 11.5721564336
8 16.7055922073 4.5901136754
9 85.6545998995 49.4881621362
10 37.3720611613 76.7749426127
11 30.4658350927 35.1040440996
12 79.2861114519 80.292292762
13 68.417884789 84.7985685546
14 23.3981580898 85.0293818704
15 75.9763882429 63.1072502234
16 12.8702710441 14.1086214099
17 9.8829012829 16.9965569809
18 38.0972109529 19.045061909
19 20.712948509 4.3319204829
20 42.583987964 86.8219036421
21 17.0884457056 25.5215994786
22 62.7412513893 77.5592680096
EOF
